Total weight: 1234.4
Route 1: 0 27 69 70 30 20 0 
Route 2: 0 18 8 83 94 13 58 0 
Route 3: 0 31 63 90 32 10 0 
Route 4: 0 52 82 7 19 47 48 0 
Route 5: 0 12 76 33 9 81 78 79 3 77 0 
Route 6: 0 51 71 66 65 35 34 0 
Route 7: 0 53 2 87 97 0 
Route 8: 0 5 84 17 86 91 100 37 0 
Route 9: 0 88 62 11 64 49 36 46 45 60 89 0 
Route 10: 0 1 50 29 24 25 55 0 
Route 11: 0 21 72 39 67 23 22 41 0 
Route 12: 0 40 73 74 75 56 4 54 80 68 0 
Route 13: 0 28 26 0 
Route 14: 0 95 92 98 16 61 85 93 99 96 6 0 
Route 15: 0 59 44 38 14 42 57 15 43 0 
